GLPSOL: GLPK LP/MIP Solver, v4.55
Parameter(s) specified in the command line:
 -m tmp.mod
Reading model section from tmp.mod...
Reading data section from tmp.mod...
103 lines were read
Generating obj...
Generating kirhoff...
Generating init_charge...
Generating batt_size...
Model has been successfully generated
GLPK Simplex Optimizer, v4.55
47 rows, 84 columns, 164 non-zeros
Preprocessing...
38 rows, 66 columns, 138 non-zeros
Scaling...
 A: min|aij| =  1.000e+00  max|aij| =  1.000e+00  ratio =  1.000e+00
Problem data seem to be well scaled
Constructing initial basis...
Size of triangular part is 34
      0: obj =   0.000000000e+00  infeas =  3.500e+01 (4)
*    22: obj =   1.000000000e+00  infeas =  0.000e+00 (1)
OPTIMAL LP SOLUTION FOUND
Time used:   0.0 secs
Memory used: 0.2 Mb (260556 bytes)
#OUTPUT:
1
-10 -10 -2 0 -16 0 0 0 0 
-1 -1 -1 0 0 0 -1 -1 0 
-4 -4 -1 -3 -19 0 0 0 0 
-3 -3 -3 0 -14 -4 0 0 0 
#OUTPUT END
Model has been successfully processed
